p wcnf 8 23 103
103 1 2 0
103 1 3 0
103 1 4 0
103 1 5 0
103 1 6 0
103 1 7 0
103 1 8 0
103 2 3 0
103 3 4 0
103 3 7 0
103 3 8 0
103 4 7 0
103 5 6 0
103 5 7 0
103 5 8 0
2 -1 0
7 -2 0
4 -3 0
6 -4 0
5 -5 0
7 -6 0
5 -7 0
6 -8 0
